10	5
0	5	3	2	1	4	5
1	4	6	10	9	7
2	3	8	9	7
3	4	9	10	7	6
4	4	9	6	7	10
5	3	10	7	9
6	1	8
7	1	11
8	1	11
9	1	11
10	1	11
11	0
0	0	0	0	0	0	0
1	7	5	1	3	0	0
2	3	4	1	5	4	1
3	6	1	5	2	1	2
4	6	1	5	1	4	3
5	3	0	0	0	5	5
6	7	5	4	0	0	0
7	2	0	4	0	2	0
8	3	1	0	4	2	5
9	5	2	3	2	3	4
10	4	2	3	2	4	3
11	0	0	0	0	0	0
6	8	6	8	8
